# Solution for model micodag
# Objective value = 7.8875286455796365e+00
s_0_1 0
s_1_0 0
s_0_2 0
s_2_0 0
s_1_2 5.9075896208095147e-01
s_2_1 0
s_2_3 0
s_3_2 0
s_2_5 0
s_5_2 7.5119147949699983e-01
s_3_4 0
s_4_3 0
s_3_5 0
s_5_3 0.775731918145909
s_3_6 0
s_6_3 0.578499541818768
s_4_5 0
s_5_4 0
s_4_6 0
s_6_4 6.3678782918081911e-01
s_4_7 0
s_7_4 3.9546473231553403e-01
s_5_6 0
s_6_5 0
s_5_7 0
s_7_5 6.6657407852612360e-01
s_5_8 0
s_8_5 3.4432930190835487e-01
s_6_7 0
s_7_6 0
s_6_8 0
s_8_6 6.7754740886464138e-01
s_7_8 0
s_8_7 4.2860544717558469e-01
s_0_0 1.9416253252215285e+00
s_1_1 1.6294571742797612e+00
s_2_2 1.1365960401186417e+00
s_3_3 1.0056288434625218e+00
s_4_4 7.0683497008548368e-01
s_5_5 2.0464458329698050e+00
s_6_6 1.0223541135644778e+00
s_7_7 9.6525281959501363e-01
s_8_8 9.9346459670832443e-01
Gamma_0_0 1.3934221633164618e+00
Gamma_0_1 0
Gamma_0_2 0
Gamma_0_3 0
Gamma_0_4 0
Gamma_0_5 0
Gamma_0_6 0
Gamma_0_7 0
Gamma_0_8 0
Gamma_1_0 0
Gamma_1_1 1.2765019288194441e+00
Gamma_1_2 0.768608458241875
Gamma_1_3 0
Gamma_1_4 0
Gamma_1_5 0
Gamma_1_6 0
Gamma_1_7 0
Gamma_1_8 0
Gamma_2_0 0
Gamma_2_1 0
Gamma_2_2 1.0661125832287328e+00
Gamma_2_3 0
Gamma_2_4 0
Gamma_2_5 0
Gamma_2_6 0
Gamma_2_7 0
Gamma_2_8 0
Gamma_3_0 0
Gamma_3_1 0
Gamma_3_2 0
Gamma_3_3 1.0028104723538354e+00
Gamma_3_4 0
Gamma_3_5 0
Gamma_3_6 0
Gamma_3_7 0
Gamma_3_8 0
Gamma_4_0 0
Gamma_4_1 0
Gamma_4_2 0
Gamma_4_3 0
Gamma_4_4 8.4073477987144329e-01
Gamma_4_5 0
Gamma_4_6 0
Gamma_4_7 0
Gamma_4_8 0
Gamma_5_0 0
Gamma_5_1 0
Gamma_5_2 -8.6671303180291459e-01
Gamma_5_3 -8.8075644655370511e-01
Gamma_5_4 0
Gamma_5_5 1.4305403989296510e+00
Gamma_5_6 0
Gamma_5_7 0
Gamma_5_8 0
Gamma_6_0 0
Gamma_6_1 0
Gamma_6_2 0
Gamma_6_3 -7.6059157359174612e-01
Gamma_6_4 7.9798986784345816e-01
Gamma_6_5 0
Gamma_6_6 1.0111152820348814e+00
Gamma_6_7 0
Gamma_6_8 0
Gamma_7_0 0
Gamma_7_1 0
Gamma_7_2 0
Gamma_7_3 0
Gamma_7_4 0.628859866993859
Gamma_7_5 8.1643988053384808e-01
Gamma_7_6 0
Gamma_7_7 0.982472808577934
Gamma_7_8 0
Gamma_8_0 0
Gamma_8_1 0
Gamma_8_2 0
Gamma_8_3 0
Gamma_8_4 0
Gamma_8_5 -5.8679579234036339e-01
Gamma_8_6 8.2313267998825157e-01
Gamma_8_7 6.5467965233050052e-01
Gamma_8_8 9.9672694189949773e-01
psi_0 0
psi_1 0
psi_2 3
psi_3 3
psi_4 2
psi_5 2
psi_6 1
psi_7 1
psi_8 0
g_0_0 0
g_0_1 0
g_0_2 0
g_0_3 0
g_0_4 0
g_0_5 0
g_0_6 0
g_0_7 0
g_0_8 0
g_1_0 0
g_1_1 0
g_1_2 1
g_1_3 0
g_1_4 0
g_1_5 0
g_1_6 0
g_1_7 0
g_1_8 0
g_2_0 0
g_2_1 0
g_2_2 0
g_2_3 0
g_2_4 0
g_2_5 0
g_2_6 0
g_2_7 0
g_2_8 0
g_3_0 0
g_3_1 0
g_3_2 0
g_3_3 0
g_3_4 0
g_3_5 0
g_3_6 0
g_3_7 0
g_3_8 0
g_4_0 0
g_4_1 0
g_4_2 0
g_4_3 0
g_4_4 0
g_4_5 0
g_4_6 0
g_4_7 0
g_4_8 0
g_5_0 0
g_5_1 0
g_5_2 1
g_5_3 1
g_5_4 0
g_5_5 0
g_5_6 0
g_5_7 0
g_5_8 0
g_6_0 0
g_6_1 0
g_6_2 0
g_6_3 1
g_6_4 1
g_6_5 0
g_6_6 0
g_6_7 0
g_6_8 0
g_7_0 0
g_7_1 0
g_7_2 0
g_7_3 0
g_7_4 1
g_7_5 1
g_7_6 0
g_7_7 0
g_7_8 0
g_8_0 0
g_8_1 0
g_8_2 0
g_8_3 0
g_8_4 0
g_8_5 1
g_8_6 1
g_8_7 1
g_8_8 0
T_0 -6.6352541882558569e-01
T_1 -4.8824693744030867e-01
T_2 -1.2803786590389166e-01
T_3 -0.00561306072118839
T_4 3.4695806312571165e-01
T_5 -7.1610454846897653e-01
T_6 -2.2107922535042235e-02
T_7 3.5365222738704460e-02
T_8 6.5568525438521874e-03
